37
8 10
15 14
-13 6
0 0
-7 -19
-18 20
8 7 
20 9
30 18
-25 -12
36 36
30 -10
35 8
30 35
-20 30
37 37
40 40
-15 30
26 -9
5 -35
-10 -10
-15 -15
16 0
-10 35
28 -8
9 -23
14 -28
-17 -34
18 -36
9 27
-9 -18
27 -21
-11 2
-17 34
14 -15
-10 40
40 -15











